NAME: random-48-19870
TYPE: TSP
COMMENT: size=48 seed=19870
DIMENSION: 98
EDGE_WEIGHT_TYPE: EUC_2D
NODE_COORD_SECTION
+0 90 19
-0 90 19
+1 958 190
-1 982 477
+2 451 746
-2 660 510
+3 423 698
-3 576 935
+4 745 886
-4 954 224
+5 745 68
-5 636 501
+6 189 620
-6 61 389
+7 465 446
-7 454 452
+8 982 169
-8 325 976
+9 940 867
-9 653 697
+10 814 259
-10 637 377
+11 535 882
-11 510 557
+12 334 453
-12 60 786
+13 532 366
-13 874 24
+14 331 628
-14 45 269
+15 315 892
-15 704 547
+16 82 805
-16 654 66
+17 56 855
-17 257 566
+18 715 731
-18 228 664
+19 851 555
-19 993 989
+20 194 103
-20 425 557
+21 746 327
-21 34 269
+22 597 475
-22 9 368
+23 172 234
-23 225 997
+24 284 350
-24 963 589
+25 498 231
-25 988 39
+26 252 834
-26 869 958
+27 287 592
-27 829 374
+28 857 644
-28 945 303
+29 962 261
-29 113 63
+30 71 558
-30 607 856
+31 152 872
-31 818 851
+32 902 17
-32 812 18
+33 751 154
-33 388 782
+34 587 83
-34 221 623
+35 225 969
-35 710 469
+36 834 366
-36 201 802
+37 627 438
-37 300 148
+38 562 587
-38 59 569
+39 931 20
-39 253 441
+40 182 718
-40 765 314
+41 799 128
-41 722 93
+42 998 236
-42 538 521
+43 153 426
-43 716 727
+44 384 782
-44 43 128
+45 535 201
-45 409 666
+46 534 378
-46 79 130
+47 67 465
-47 419 869
+48 387 182
-48 104 532
PRECEDENCE_SECTION
+0 -0
+1 -1
+2 -2
+3 -3
+4 -4
+5 -5
+6 -6
+7 -7
+8 -8
+9 -9
+10 -10
+11 -11
+12 -12
+13 -13
+14 -14
+15 -15
+16 -16
+17 -17
+18 -18
+19 -19
+20 -20
+21 -21
+22 -22
+23 -23
+24 -24
+25 -25
+26 -26
+27 -27
+28 -28
+29 -29
+30 -30
+31 -31
+32 -32
+33 -33
+34 -34
+35 -35
+36 -36
+37 -37
+38 -38
+39 -39
+40 -40
+41 -41
+42 -42
+43 -43
+44 -44
+45 -45
+46 -46
+47 -47
+48 -48
EOF
